* #variable= 20 #constraint= 1 #product= 18 sizeproduct= 36
min: +8 x1 x3 -4 x1 -8 x3 +8 x2 x4 -4 x2 -8 x4 +8 x3 x5 -8 x5 +8 x4 x6 -8 x6 +8 x5 x7 -8 x7 +8 x6 x8 -8 x8 +8 x7 x9 -8 x9 +8 x8 x10 -8 x10 +8 x9 x11 -8 x11 +8 x10 x12 -8 x12 +8 x11 x13 -8 x13 +8 x12 x14 -8 x14 +8 x13 x15 -8 x15 +8 x14 x16 -8 x16 +8 x15 x17 -8 x17 +8 x16 x18 -8 x18 +8 x17 x19 -4 x19 +8 x18 x20 -4 x20 ;
+1 x1 >= 0 ;
